experiments/extractfix/libtiff/CVE-2016-3186/spec.smt2
(declare-fun output!i32!obs!0 () (Array (_ BitVec 32) (_ BitVec 8) ) )
(assert (let (( ?B1 (concat  (select  output!i32!obs!0  (_ bv3 32) ) (concat  (select  output!i32!obs!0  (_ bv2 32) ) (concat  (select  output!i32!obs!0  (_ bv1 32) ) (select  output!i32!obs!0  (_ bv0 32) ) ) ) ))) (and (or (= false (bvsle  ?B1 (_ bv255 32))) (bvsle (_ bv0 32) ?B1)) (or (= false (= (_ bv0 32) ?B1)) (bvsle (_ bv0 32) ?B1))) ))